============================[ Problem Statistics ]=============================|                                                                             ||  Number of variables:          4242                                         ||  Number of clauses:           10411                                         ||  Parse time:                   0.80 s                                       ||                                                                             |============================[ Search Statistics ]==============================| Conflicts |          ORIGINAL         |          LEARNT          | Progress ||           |    Vars  Clauses Literals |    Limit  Clauses Lit/Cl |          |===============================================================================|       100 |    1591     6616  1273457 |     2425      100     53 | 62.501 % ||       250 |    1591     6616  1273457 |     2668      250     75 | 62.495 % |===============================================================================restarts              : 4conflicts             : 430            (358 /sec)decisions             : 791            (0.00 % random) (659 /sec)propagations          : 13706          (11422 /sec)conflict literals     : 36151          (94.49 % deleted)CPU time              : 1.2 sSATISFIABLE